certificates/rado_a15_c287_N30.cnf
c Rad2 upper bound instance: x1 + 15*x2 - x3 = 287, interval [1,30]
p cnf 30 120
1 14 20 0
-1 -14 -20 0
1 21 29 0
-1 -21 -29 0
2 15 20 0
-2 -15 -20 0
2 21 30 0
-2 -21 -30 0
1 3 19 0
-1 -3 -19 0
3 16 20 0
-3 -16 -20 0
2 4 19 0
-2 -4 -19 0
4 17 20 0
-4 -17 -20 0
3 5 19 0
-3 -5 -19 0
5 18 20 0
-5 -18 -20 0
4 6 19 0
-4 -6 -19 0
6 19 20 0
-6 -19 -20 0
5 7 19 0
-5 -7 -19 0
7 20 0
-7 -20 0
6 8 19 0
-6 -8 -19 0
8 20 21 0
-8 -20 -21 0
7 9 19 0
-7 -9 -19 0
9 20 22 0
-9 -20 -22 0
8 10 19 0
-8 -10 -19 0
10 20 23 0
-10 -20 -23 0
9 11 19 0
-9 -11 -19 0
11 20 24 0
-11 -20 -24 0
10 12 19 0
-10 -12 -19 0
12 20 25 0
-12 -20 -25 0
11 13 19 0
-11 -13 -19 0
13 20 26 0
-13 -20 -26 0
12 14 19 0
-12 -14 -19 0
14 20 27 0
-14 -20 -27 0
13 15 19 0
-13 -15 -19 0
15 20 28 0
-15 -20 -28 0
14 16 19 0
-14 -16 -19 0
16 20 29 0
-16 -20 -29 0
15 17 19 0
-15 -17 -19 0
17 20 30 0
-17 -20 -30 0
1 18 0
-1 -18 0
16 18 19 0
-16 -18 -19 0
2 18 19 0
-2 -18 -19 0
17 19 0
-17 -19 0
3 18 20 0
-3 -18 -20 0
18 19 20 0
-18 -19 -20 0
4 18 21 0
-4 -18 -21 0
19 21 0
-19 -21 0
5 18 22 0
-5 -18 -22 0
19 20 22 0
-19 -20 -22 0
6 18 23 0
-6 -18 -23 0
19 21 23 0
-19 -21 -23 0
7 18 24 0
-7 -18 -24 0
19 22 24 0
-19 -22 -24 0
8 18 25 0
-8 -18 -25 0
19 23 25 0
-19 -23 -25 0
9 18 26 0
-9 -18 -26 0
19 24 26 0
-19 -24 -26 0
10 18 27 0
-10 -18 -27 0
19 25 27 0
-19 -25 -27 0
11 18 28 0
-11 -18 -28 0
19 26 28 0
-19 -26 -28 0
12 18 29 0
-12 -18 -29 0
19 27 29 0
-19 -27 -29 0
13 18 30 0
-13 -18 -30 0
19 28 30 0
-19 -28 -30 0
