certificates/rado_a15_c287_N30.drat
19 -30 0
20 27 -19 0
-20 -30 0
-30 0
20 0
-7 0
19 0
-17 0
-21 0
-22 0
-18 0
-6 0
2 0
5 0
1 0
13 0
4 0
24 0
23 0
0
